% seed = 0

mint = 22;
% maxt = 68;

nActs = 32;
dur = [0,2,1,2,6,1,1,1,1,2,3,1,4,1,3,3,2,2,1,3,1,1,2,4,1,3,1,5,2,5,3,0];

nSkills = 12;
sreq = [| 0,0,0,0,0,0,0,0,0,0,0,0,
	| 0,0,0,0,1,0,0,0,0,0,0,0,
	| 0,0,1,0,0,0,0,0,1,0,0,0,
	| 0,0,0,0,0,0,0,0,0,0,1,0,
	| 0,1,0,0,0,0,0,0,0,0,1,1,
	| 0,0,2,0,0,0,0,0,0,0,1,0,
	| 0,0,1,1,0,0,0,0,0,0,0,0,
	| 0,0,0,0,0,0,0,0,0,0,0,1,
	| 0,1,1,0,0,0,0,0,0,0,0,0,
	| 0,0,1,0,0,0,0,1,0,0,0,0,
	| 0,0,0,0,0,0,0,0,1,0,0,0,
	| 0,1,0,0,0,0,1,0,0,0,0,1,
	| 0,0,1,0,0,0,0,0,0,0,0,0,
	| 0,0,1,0,0,0,0,0,0,0,0,0,
	| 0,0,2,0,0,0,0,0,0,0,1,0,
	| 0,0,1,0,0,0,0,0,0,1,0,0,
	| 0,0,1,0,0,0,0,0,0,1,0,0,
	| 1,0,0,0,0,0,0,0,1,0,0,1,
	| 1,0,1,0,0,0,0,0,0,0,0,0,
	| 0,1,0,0,0,0,0,0,1,0,0,0,
	| 0,0,0,0,0,0,0,1,0,0,0,1,
	| 0,0,0,0,0,0,0,1,0,0,0,0,
	| 0,0,2,0,0,0,0,0,0,0,0,0,
	| 0,0,1,0,0,0,0,1,0,0,0,1,
	| 0,0,1,0,0,0,1,0,0,0,0,1,
	| 0,0,1,0,0,0,0,0,0,0,0,0,
	| 0,0,1,0,0,0,0,0,0,0,0,0,
	| 0,0,0,0,0,0,1,0,0,0,0,0,
	| 0,0,0,0,0,0,0,0,0,0,0,1,
	| 0,0,1,0,0,1,0,1,0,0,0,0,
	| 0,0,1,0,0,0,0,1,0,0,0,1,
	| 0,0,0,0,0,0,0,0,0,0,0,0, |];

% SumOfsreq = 58;

nResources = 11;
mastery = [| false,false,true,false,false,false,false,false,false,false,false,false,
	| false,false,false,true,true,true,false,false,false,true,true,true,
	| false,false,true,false,false,false,false,false,false,false,false,false,
	| false,false,false,false,false,false,true,true,true,false,true,true,
	| true,true,true,false,false,false,false,false,false,false,false,false,
	| false,true,true,false,false,false,true,true,true,false,false,false,
	| false,true,true,false,false,false,false,false,false,false,false,false,
	| false,false,false,false,false,false,false,false,false,false,false,true,
	| false,false,false,false,false,false,false,false,false,true,true,true,
	| false,false,false,true,true,true,true,true,true,false,true,true,
	| false,true,true,false,false,false,false,false,false,false,false,false, |];

nPrecs = 48;
pred = [1,1,1,2,2,2,3,4,4,4,5,5,5,6,6,7,8,9,10,11,12,12,13,13,13,14,15,15,16,16,17,18,19,20,21,22,23,24,24,24,25,25,26,27,28,29,30,31];
succ = [2,3,4,11,5,19,16,6,7,14,9,12,8,10,23,24,27,22,13,21,13,15,25,18,26,24,17,22,19,31,20,28,29,29,28,31,30,25,26,31,28,30,27,30,29,32,32,32];

nUnrels = 287;
unpred = [2,2,2,2,2,2,2,2,2,3,3,3,3,3,3,3,3,3,3,3,3,3,3,3,3,3,3,3,3,3,3,3,3,4,4,4,4,4,4,4,4,4,4,4,4,5,5,5,5,5,5,5,5,5,5,6,6,6,6,6,6,6,6,6,6,6,6,6,6,6,7,7,7,7,7,7,7,7,7,7,7,7,7,7,7,7,8,8,8,8,8,8,8,8,8,8,8,8,8,8,8,8,8,8,8,8,8,9,9,9,9,9,9,9,9,9,9,9,9,9,9,9,9,9,9,9,9,10,10,10,10,10,10,10,10,10,10,10,10,10,11,11,11,11,11,11,11,11,11,11,11,11,11,11,11,11,11,12,12,12,12,12,12,13,13,13,13,13,13,13,13,13,13,13,14,14,14,14,14,14,14,14,14,15,15,15,15,15,15,15,15,15,15,15,16,16,16,16,16,16,16,16,16,16,16,16,17,17,17,17,17,17,17,17,17,17,17,17,18,18,18,18,18,18,18,18,18,18,18,19,19,19,19,19,19,19,19,19,19,19,20,20,20,20,20,20,20,20,20,20,21,21,21,21,21,21,21,21,22,22,22,22,22,22,22,22,23,23,23,23,23,23,23,25,25,25,26,26,26,27,27,27,28,28,29,29,30];
unsucc = [3,4,6,7,10,14,16,23,24,4,5,6,7,8,9,10,11,12,13,14,15,17,18,20,21,22,23,24,25,26,27,28,30,5,8,9,11,12,15,16,17,19,20,21,22,6,7,10,11,14,16,19,21,23,24,7,8,9,11,12,14,15,16,17,19,20,21,22,24,31,8,9,10,11,12,13,14,15,16,17,18,19,20,21,22,23,9,10,11,12,13,14,15,16,17,18,19,20,21,22,23,24,25,26,28,29,31,10,11,12,13,14,15,16,17,18,19,20,21,23,24,25,26,27,28,29,30,11,12,14,15,16,17,19,20,21,22,23,24,31,12,13,14,15,16,17,18,19,20,22,23,24,25,26,27,30,31,14,16,19,21,23,24,14,15,16,17,19,20,21,22,23,24,31,15,16,17,18,19,20,21,22,23,16,18,19,21,23,24,25,26,27,28,30,17,18,20,21,22,23,24,25,26,27,28,30,18,19,21,22,23,24,25,26,27,28,30,31,19,20,21,22,23,24,25,26,27,30,31,20,21,22,23,24,25,26,27,28,30,31,21,22,23,24,25,26,27,28,30,31,22,23,24,25,26,27,30,31,23,24,25,26,27,28,29,30,24,25,26,27,28,29,31,26,27,31,28,29,31,28,29,31,30,31,30,31,31];

USEFUL_RES = [{},
	{2,10},
	{1,3,4,5,6,7,10,11},
	{2,4,9,10},
	{2,4,5,6,7,8,9,10,11},
	{1,2,3,4,5,6,7,9,10,11},
	{1,2,3,5,6,7,10,11},
	{2,4,8,9,10},
	{1,3,5,6,7,11},
	{1,3,4,5,6,7,10,11},
	{4,6,10},
	{2,4,5,6,7,8,9,10,11},
	{1,3,5,6,7,11},
	{1,3,5,6,7,11},
	{1,2,3,4,5,6,7,9,10,11},
	{1,2,3,5,6,7,9,11},
	{1,2,3,5,6,7,9,11},
	{2,4,5,6,8,9,10},
	{1,3,5,6,7,11},
	{4,5,6,7,10,11},
	{2,4,6,8,9,10},
	{4,6,10},
	{1,3,5,6,7,11},
	{1,2,3,4,5,6,7,8,9,10,11},
	{1,2,3,4,5,6,7,8,9,10,11},
	{1,3,5,6,7,11},
	{1,3,5,6,7,11},
	{4,6,10},
	{2,4,8,9,10},
	{1,2,3,4,5,6,7,10,11},
	{1,2,3,4,5,6,7,8,9,10,11},
	{}];

POTENTIAL_ACT = [{3,6,7,9,10,13,14,15,16,17,19,23,24,25,26,27,30,31},
	{2,4,5,6,7,8,12,15,16,17,18,21,24,25,29,30,31},
	{3,6,7,9,10,13,14,15,16,17,19,23,24,25,26,27,30,31},
	{3,4,5,6,8,10,11,12,15,18,20,21,22,24,25,28,29,30,31},
	{3,5,6,7,9,10,12,13,14,15,16,17,18,19,20,23,24,25,26,27,30,31},
	{3,5,6,7,9,10,11,12,13,14,15,16,17,18,19,20,21,22,23,24,25,26,27,28,30,31},
	{3,5,6,7,9,10,12,13,14,15,16,17,19,20,23,24,25,26,27,30,31},
	{5,8,12,18,21,24,25,29,31},
	{4,5,6,8,12,15,16,17,18,21,24,25,29,31},
	{2,3,4,5,6,7,8,10,11,12,15,18,20,21,22,24,25,28,29,30,31},
	{3,5,6,7,9,10,12,13,14,15,16,17,19,20,23,24,25,26,27,30,31}];
